peakDumbCharging = 11100; 
Machine = anon_enum(16); 
machineSpeed = [3700,3700,3700,3700,3700,3700,3700,3700,3700,3700,3700,3700,3700,3700,3700,3700]; 
machineLoad = [3700,3700,3700,3700,3700,3700,3700,3700,3700,3700,3700,3700,3700,3700,3700,3700]; 
Car = anon_enum(7); 
demandCar = [4920,19240,6840,5760,11560,2120,4880]; 
arrivalCar = [74,73,54,51,48,47,46]; 
departureCar = [78,84,57,55,53,51,58]; 
